c 157_4_checker_5cl.cnf
c
c field = 157
c formula set type = 4_checker_5cl
c
p cnf 5 6
342 
372 
402 
432 
-282 
343 
373 
403 
433 
-283 
344 
376 
408 
440 
-280 
345 
377 
409 
441 
-281 
340 
368 
396 
424 
-284 
341 
369 
397 
425 
-285 
